(set-logic QF_LIA)
(declare-fun x0 () Int)
(declare-fun x1 () Int)
(declare-fun x2 () Int)
(declare-fun x3 () Int)
(declare-fun x4 () Int)
(declare-fun x5 () Int)
(declare-fun x6 () Int)
(declare-fun x7 () Int)
(declare-fun x8 () Int)
(declare-fun x9 () Int)
(declare-fun A0 () Bool)
(declare-fun A1 () Bool)
(declare-fun A2 () Bool)
(declare-fun A3 () Bool)
(declare-fun A4 () Bool)
(declare-fun A5 () Bool)
(declare-fun A6 () Bool)
(declare-fun A7 () Bool)
(declare-fun A8 () Bool)
(declare-fun A9 () Bool)
(assert (let ((.def_0 (not A8))) (let ((.def_1 (or .def_0 A3))) (let ((.def_2 (not .def_1))) (let ((.def_3 (and A7 A5))) (let ((.def_4 (not .def_3))) (let ((.def_5 (and .def_4 .def_2))) (let ((.def_6 (* (- 1) x2))) (let ((.def_7 (* (- 1) x5))) (let ((.def_8 (+ .def_7 .def_6))) (let ((.def_9 (< .def_8 1))) (let ((.def_10 (not .def_9))) (let ((.def_11 (or A3 .def_10))) (let ((.def_12 (or A2 A2))) (let ((.def_13 (not .def_12))) (let ((.def_14 (= .def_13 .def_11))) (let ((.def_15 (and .def_14 .def_5))) (let ((.def_16 (not .def_15))) (let ((.def_17 (* 1 x4))) (let ((.def_18 (< .def_17 1))) (let ((.def_19 (< .def_7 1))) (let ((.def_20 (not .def_19))) (let ((.def_21 (and .def_20 .def_18))) (let ((.def_22 (not .def_21))) (let ((.def_23 (or A0 A3))) (let ((.def_24 (or .def_23 .def_22))) (let ((.def_25 (* 1 x6))) (let ((.def_26 (* (- 1) x8))) (let ((.def_27 (+ .def_26 .def_25))) (let ((.def_28 (< .def_27 (- 1)))) (let ((.def_29 (or .def_28 A5))) (let ((.def_30 (* 1 x0))) (let ((.def_31 (* (- 1) x1))) (let ((.def_32 (+ .def_31 .def_30))) (let ((.def_33 (< .def_32 1))) (let ((.def_34 (not A4))) (let ((.def_35 (and .def_34 .def_33))) (let ((.def_36 (not .def_35))) (let ((.def_37 (and .def_36 .def_29))) (let ((.def_38 (not .def_37))) (let ((.def_39 (and .def_38 .def_24))) (let ((.def_40 (not .def_39))) (let ((.def_41 (and .def_40 .def_16))) (let ((.def_42 (not .def_41))) (let ((.def_43 (or A8 A0))) (let ((.def_44 (not .def_43))) (let ((.def_45 (+ .def_31 .def_25))) (let ((.def_46 (< .def_45 1))) (let ((.def_47 (* 1 x1))) (let ((.def_48 (< .def_47 (- 1)))) (let ((.def_49 (or .def_48 .def_46))) (let ((.def_50 (and .def_49 .def_44))) (let ((.def_51 (not .def_50))) (let ((.def_52 (* 1 x9))) (let ((.def_53 (< .def_52 (- 1)))) (let ((.def_54 (not .def_53))) (let ((.def_55 (not A3))) (let ((.def_56 (or .def_55 .def_54))) (let ((.def_57 (not .def_56))) (let ((.def_58 (and A4 A4))) (let ((.def_59 (or .def_58 .def_57))) (let ((.def_60 (not .def_59))) (let ((.def_61 (or .def_60 .def_51))) (let ((.def_62 (< .def_26 (- 1)))) (let ((.def_63 (not .def_62))) (let ((.def_64 (or .def_63 A5))) (let ((.def_65 (not .def_64))) (let ((.def_66 (* (- 1) x3))) (let ((.def_67 (< .def_66 1))) (let ((.def_68 (or .def_67 A9))) (let ((.def_69 (not .def_68))) (let ((.def_70 (or .def_69 .def_65))) (let ((.def_71 (not A6))) (let ((.def_72 (not A1))) (let ((.def_73 (= .def_72 .def_71))) (let ((.def_74 (not A2))) (let ((.def_75 (not A0))) (let ((.def_76 (and .def_75 .def_74))) (let ((.def_77 (or .def_76 .def_73))) (let ((.def_78 (or .def_77 .def_70))) (let ((.def_79 (not .def_78))) (let ((.def_80 (or .def_79 .def_61))) (let ((.def_81 (not .def_80))) (let ((.def_82 (or .def_81 .def_42))) (let ((.def_83 (not .def_82))) (let ((.def_84 (<= x9 1))) (let ((.def_85 (<= 0 x9))) (let ((.def_86 (<= x8 1))) (let ((.def_87 (<= 0 x8))) (let ((.def_88 (<= x7 1))) (let ((.def_89 (<= 0 x7))) (let ((.def_90 (<= x6 1))) (let ((.def_91 (<= 0 x6))) (let ((.def_92 (<= x5 1))) (let ((.def_93 (<= 0 x5))) (let ((.def_94 (<= x4 1))) (let ((.def_95 (<= 0 x4))) (let ((.def_96 (<= x3 1))) (let ((.def_97 (<= 0 x3))) (let ((.def_98 (<= x2 1))) (let ((.def_99 (<= 0 x2))) (let ((.def_100 (<= x1 1))) (let ((.def_101 (<= 0 x1))) (let ((.def_102 (<= x0 1))) (let ((.def_103 (<= 0 x0))) (let ((.def_104 (and .def_103 .def_102 .def_101 .def_100 .def_99 .def_98 .def_97 .def_96 .def_95 .def_94 .def_93 .def_92 .def_91 .def_90 .def_89 .def_88 .def_87 .def_86 .def_85 .def_84 .def_83))) .def_104))))))))))))))))))))))))))))))))))))))))))))))))))))))))))))))))))))))))))))))))))))))))))))))))))))))))))
(check-sat)
